# Solution for model GasLib-40
# Objective value = 1.0600263225872624e+01
loadshed[innode_1] 0
loadshed[innode_2] 0
loadshed[innode_3] 0
loadshed[innode_4] 0
loadshed[innode_5] 0
loadshed[innode_6] 0
loadshed[innode_7] 0
loadshed[innode_8] 0
loadshed[source_1] -2.8769261849960315e-01
loadshed[source_2] 0.0985063825239395
loadshed[source_3] 2.5623819751858834e-01
loadshed[sink_1] 0
loadshed[sink_2] 0
loadshed[sink_3] 0
loadshed[sink_4] 0
loadshed[sink_5] 0
loadshed[sink_6] 0
loadshed[sink_7] 0
loadshed[sink_8] 0
loadshed[sink_9] 0
loadshed[sink_10] 0
loadshed[sink_11] 0
loadshed[sink_12] 6.4816896158202031e-01
loadshed[sink_13] 0
loadshed[sink_14] 0
loadshed[sink_15] 0
loadshed[sink_16] 0
loadshed[sink_17] 0
loadshed[sink_18] 0
loadshed[sink_19] 0
loadshed[sink_20] 0
loadshed[sink_21] 0
loadshed[sink_22] 0
loadshed[sink_23] 0
loadshed[sink_24] 0
loadshed[sink_25] 0
loadshed[sink_26] 0
loadshed[sink_27] 0
loadshed[sink_28] 0
loadshed[sink_29] 0
flow[source_1,sink_3] 2.0357168375099627e+02
flow[innode_1,sink_16] 1.6354166666666970e+01
flow[innode_6,sink_13] -3.1023432881200392e+00
flow[sink_13,sink_14] -1.9456509954786707e+01
flow[sink_14,sink_10] -3.5810676621453410e+01
flow[sink_25,sink_26] 1.7368422375806529e+02
flow[sink_26,sink_9] 1.2276982619575759e+02
flow[sink_9,sink_18] 1.0641565952909092e+02
flow[sink_26,sink_4] 3.4560230895641041e+01
flow[sink_4,sink_20] -2.8319679682728975e+01
flow[sink_18,sink_6] 9.0061492862424245e+01
flow[sink_25,innode_8] -1.7086335041765994e+02
flow[sink_6,sink_7] 4.0998992862423165e+01
flow[sink_6,sink_22] 3.2708333333333641e+01
flow[sink_7,sink_24] 3.8462236774127376e+01
flow[sink_22,sink_1] 1.6354166666666970e+01
flow[sink_24,sink_21] 2.2108070107460712e+01
flow[sink_21,sink_12] 5.7539034407940424e+00
flow[sink_7,sink_5] -1.3817410578369973e+01
flow[sink_5,sink_17] -30.1715772450367
flow[sink_17,sink_4] -4.6525743911703373e+01
flow[sink_17,sink_8] 0
flow[sink_3,sink_23] 16.3541666666697
flow[sink_8,sink_20] -1.6354166666668334e+01
flow[sink_25,sink_20] 6.1028013016064023e+01
flow[sink_25,sink_15] -7.7100709735016224e+01
flow[sink_15,sink_29] 0
flow[sink_29,sink_28] 1.6354166666667879e+01
flow[sink_29,sink_2] 1.0980904306834957e+02
flow[sink_2,sink_15] 93.4548764016829
flow[sink_29,innode_7] -1.4251737640168415e+02
flow[innode_4,sink_19] 0
flow[sink_19,innode_3] 4.1417751941785468e+01
flow[innode_4,innode_5] 1.1758150995478705e+02
flow[sink_27,innode_5] -1.1758150995478705e+02
flow[sink_27,sink_19] 1.0122734328812038e+02
flow[sink_10,sink_11] 3.2708333333333641e+01
flow[sink_10,innode_2] -4.3455424679668226e+01
flow[sink_10,innode_3] -4.1417751941785468e+01
flow[innode_6,sink_25] 3.1023432881200392e+00
flow[sink_11,innode_1] 1.6354166666666970e+01
flow[sink_19,innode_2] 4.3455424679668226e+01
flow[source_3,innode_4] 1.1758150995478705e+02
flow[source_2,innode_7] 1.4251737640168415e+02
flow[sink_3,innode_8] 1.7086335041765994e+02
pressure[innode_1] 7.5334773554497119e+01
pressure[innode_2] 7.7783273533203115e+01
pressure[innode_3] 7.7691558611579651e+01
pressure[innode_4] 81.01325
pressure[innode_5] 8.0932371237360883e+01
pressure[innode_6] 7.3740758359334265e+01
pressure[innode_7] 81.01325
pressure[innode_8] 8.0332787628422366e+01
pressure[source_1] 81.01325
pressure[source_2] 81.01325
pressure[source_3] 81.01325
pressure[sink_1] 4.5803766168033619e+01
pressure[sink_2] 7.4419881504492608e+01
pressure[sink_3] 8.0332787628422366e+01
pressure[sink_4] 5.7114203277199522e+01
pressure[sink_5] 5.3088578340461567e+01
pressure[sink_6] 4.7904843778420990e+01
pressure[sink_7] 4.7342025333227824e+01
pressure[sink_8] 5.8052211234460053e+01
pressure[sink_9] 5.4160189521126725e+01
pressure[sink_10] 7.5486474862100664e+01
pressure[sink_11] 7.5334773554497119e+01
pressure[sink_12] 1.0132499999999998e+00
pressure[sink_13] 7.3757861059431946e+01
pressure[sink_14] 7.3792680141324226e+01
pressure[sink_15] 7.4114771930164110e+01
pressure[sink_16] 7.4313123719679439e+01
pressure[sink_17] 5.5336142758792548e+01
pressure[sink_18] 5.0309753786151134e+01
pressure[sink_19] 7.7783273533203115e+01
pressure[sink_20] 5.9191866658048340e+01
pressure[sink_21] 3.0608037565964867e+00
pressure[sink_22] 4.6867535310388625e+01
pressure[sink_23] 8.0168069616762580e+01
pressure[sink_24] 3.3056300921897348e+00
pressure[sink_25] 7.3740758359334265e+01
pressure[sink_26] 61.5082804791419
pressure[sink_27] 79.9566619720051
pressure[sink_28] 7.6906186218818377e+01
pressure[sink_29] 7.7201468492435552e+01
interdiction[source_1,sink_3] 0
interdiction[innode_1,sink_16] 0
interdiction[innode_6,sink_13] 0
interdiction[sink_13,sink_14] 0
interdiction[sink_14,sink_10] 0
interdiction[sink_25,sink_26] 0
interdiction[sink_26,sink_9] 0
interdiction[sink_9,sink_18] 0
interdiction[sink_26,sink_4] 0
interdiction[sink_4,sink_20] 0
interdiction[sink_18,sink_6] 0
interdiction[sink_25,innode_8] 0
interdiction[sink_6,sink_7] 0
interdiction[sink_6,sink_22] 0
interdiction[sink_7,sink_24] 0
interdiction[sink_22,sink_1] 0
interdiction[sink_24,sink_21] 0
interdiction[sink_21,sink_12] 0
interdiction[sink_7,sink_5] 0
interdiction[sink_5,sink_17] 0
interdiction[sink_17,sink_4] 0
interdiction[sink_17,sink_8] 1
interdiction[sink_3,sink_23] 0
interdiction[sink_8,sink_20] 0
interdiction[sink_25,sink_20] 0
interdiction[sink_25,sink_15] 0
interdiction[sink_15,sink_29] 1
interdiction[sink_29,sink_28] 0
interdiction[sink_29,sink_2] 0
interdiction[sink_2,sink_15] 0
interdiction[sink_29,innode_7] 0
interdiction[innode_4,sink_19] 1
interdiction[sink_19,innode_3] 0
interdiction[innode_4,innode_5] 0
interdiction[sink_27,innode_5] 0
interdiction[sink_27,sink_19] 0
interdiction[sink_10,sink_11] 0
interdiction[sink_10,innode_2] 0
interdiction[sink_10,innode_3] 0
interdiction[innode_6,sink_25] 0
interdiction[sink_11,innode_1] 0
interdiction[sink_19,innode_2] 0
interdiction[source_3,innode_4] 0
interdiction[source_2,innode_7] 0
interdiction[sink_3,innode_8] 0
WCcheckFlow[source_1,sink_3] 39
WCcheckFlow[innode_1,sink_16] 1
WCcheckFlow[innode_6,sink_13] 13
WCcheckFlow[sink_13,sink_14] 12
WCcheckFlow[sink_14,sink_10] 11
WCcheckFlow[sink_25,sink_26] 15
WCcheckFlow[sink_26,sink_9] 11
WCcheckFlow[sink_9,sink_18] 10
WCcheckFlow[sink_26,sink_4] 3
WCcheckFlow[sink_4,sink_20] 2
WCcheckFlow[sink_18,sink_6] 9
WCcheckFlow[sink_25,innode_8] -36
WCcheckFlow[sink_6,sink_7] 6
WCcheckFlow[sink_6,sink_22] 2
WCcheckFlow[sink_7,sink_24] 3
WCcheckFlow[sink_22,sink_1] 1
WCcheckFlow[sink_24,sink_21] 2
WCcheckFlow[sink_21,sink_12] 1
WCcheckFlow[sink_7,sink_5] 2
WCcheckFlow[sink_5,sink_17] 1
WCcheckFlow[sink_17,sink_4] 0
WCcheckFlow[sink_17,sink_8] 0
WCcheckFlow[sink_3,sink_23] 1
WCcheckFlow[sink_8,sink_20] -1
WCcheckFlow[sink_25,sink_20] 0
WCcheckFlow[sink_25,sink_15] 6
WCcheckFlow[sink_15,sink_29] 0
WCcheckFlow[sink_29,sink_28] 1
WCcheckFlow[sink_29,sink_2] -4
WCcheckFlow[sink_2,sink_15] -5
WCcheckFlow[sink_29,innode_7] 2
WCcheckFlow[innode_4,sink_19] 0
WCcheckFlow[sink_19,innode_3] -5
WCcheckFlow[innode_4,innode_5] -2
WCcheckFlow[sink_27,innode_5] 3
WCcheckFlow[sink_27,sink_19] -4
WCcheckFlow[sink_10,sink_11] 3
WCcheckFlow[sink_10,innode_2] 1
WCcheckFlow[sink_10,innode_3] 6
WCcheckFlow[innode_6,sink_25] -14
WCcheckFlow[sink_11,innode_1] 2
WCcheckFlow[sink_19,innode_2] 0
WCcheckFlow[source_3,innode_4] -1
WCcheckFlow[source_2,innode_7] -1
WCcheckFlow[sink_3,innode_8] 37
